p cnf 1179 930
-937 1064 0
-1064 937 0
-1066 -1067 0
-939 1066 0
-940 1067 0
-1066 939 0
-1067 940 0
-1069 -1070 0
-942 1069 0
-943 1070 0
-1069 942 0
-1070 943 0
-1072 -1073 0
-1072 -1074 0
-1073 -1074 0
-945 1072 0
-946 1073 0
-947 1074 0
-1072 945 0
-1073 946 0
-1074 947 0
-1076 -1077 0
-949 1076 0
-950 1077 0
-1076 949 0
-1077 950 0
-1079 -1080 0
-1079 -1081 0
-1080 -1081 0
-952 1079 0
-953 1080 0
-954 1081 0
-1079 952 0
-1080 953 0
-1081 954 0
-1083 -1084 0
-956 1083 0
-957 1084 0
-1083 956 0
-1084 957 0
-1086 -1087 0
-1086 -1088 0
-1087 -1088 0
-959 1086 0
-960 1087 0
-961 1088 0
-1086 959 0
-1087 960 0
-1088 961 0
-1090 -1091 0
-963 1091 0
-964 1090 0
-1090 964 0
-1091 963 0
-1093 1103 1104 1105 1106 1107 0
-1103 -1104 0
-1103 -1105 0
-1103 -1106 0
-1103 -1107 0
-1104 -1105 0
-1104 -1106 0
-1104 -1107 0
-1105 -1106 0
-1105 -1107 0
-1106 -1107 0
-1093 1108 1109 1110 1111 1112 1113 1114 0
-1108 -1109 0
-1108 -1110 0
-1108 -1111 0
-1108 -1112 0
-1108 -1113 0
-1108 -1114 0
-1109 -1110 0
-1109 -1111 0
-1109 -1112 0
-1109 -1113 0
-1109 -1114 0
-1110 -1111 0
-1110 -1112 0
-1110 -1113 0
-1110 -1114 0
-1111 -1112 0
-1111 -1113 0
-1111 -1114 0
-1112 -1113 0
-1112 -1114 0
-1113 -1114 0
-1093 1115 1116 1117 1118 1119 1120 1121 1122 0
-1115 -1116 0
-1115 -1117 0
-1115 -1118 0
-1115 -1119 0
-1115 -1120 0
-1115 -1121 0
-1115 -1122 0
-1116 -1117 0
-1116 -1118 0
-1116 -1119 0
-1116 -1120 0
-1116 -1121 0
-1116 -1122 0
-1117 -1118 0
-1117 -1119 0
-1117 -1120 0
-1117 -1121 0
-1117 -1122 0
-1118 -1119 0
-1118 -1120 0
-1118 -1121 0
-1118 -1122 0
-1119 -1120 0
-1119 -1121 0
-1119 -1122 0
-1120 -1121 0
-1120 -1122 0
-1121 -1122 0
-1093 1098 0
-1093 1100 0
-1093 1101 0
-1095 1103 1104 1105 1106 1107 0
-1103 -1104 0
-1103 -1105 0
-1103 -1106 0
-1103 -1107 0
-1104 -1105 0
-1104 -1106 0
-1104 -1107 0
-1105 -1106 0
-1105 -1107 0
-1106 -1107 0
-1095 1108 1109 1110 1111 1112 1113 1114 0
-1108 -1109 0
-1108 -1110 0
-1108 -1111 0
-1108 -1112 0
-1108 -1113 0
-1108 -1114 0
-1109 -1110 0
-1109 -1111 0
-1109 -1112 0
-1109 -1113 0
-1109 -1114 0
-1110 -1111 0
-1110 -1112 0
-1110 -1113 0
-1110 -1114 0
-1111 -1112 0
-1111 -1113 0
-1111 -1114 0
-1112 -1113 0
-1112 -1114 0
-1113 -1114 0
-1095 1115 1116 1117 1118 1119 1120 1121 1122 0
-1115 -1116 0
-1115 -1117 0
-1115 -1118 0
-1115 -1119 0
-1115 -1120 0
-1115 -1121 0
-1115 -1122 0
-1116 -1117 0
-1116 -1118 0
-1116 -1119 0
-1116 -1120 0
-1116 -1121 0
-1116 -1122 0
-1117 -1118 0
-1117 -1119 0
-1117 -1120 0
-1117 -1121 0
-1117 -1122 0
-1118 -1119 0
-1118 -1120 0
-1118 -1121 0
-1118 -1122 0
-1119 -1120 0
-1119 -1121 0
-1119 -1122 0
-1120 -1121 0
-1120 -1122 0
-1121 -1122 0
-1095 1098 0
-1095 1099 0
-1095 1102 0
-1093 -1094 0
-1093 -1095 0
-1093 -1096 0
-1094 -1095 0
-1094 -1096 0
-1095 -1096 0
-1106 -1108 -1098 1009 0
-1106 -1113 -1098 1016 0
-1106 -1109 -1098 994 0
-1104 -1112 -1098 995 0
-1106 -1114 -1098 997 0
-1103 -1109 -1098 998 0
-1105 -1109 -1098 1012 0
-1107 -1112 -1098 1027 0
-1105 -1114 -1098 999 0
-1106 -1111 -1098 1001 0
-1105 -1112 -1098 1020 0
-1103 -1112 -1098 1013 0
-1107 -1113 -1098 1003 0
-1107 -1109 -1098 1028 0
-1103 -1113 -1098 1029 0
-1106 -1110 -1098 1022 0
-1104 -1109 -1098 1023 0
-1107 -1108 -1098 1006 0
-1107 -1110 -1098 1024 0
-1104 -1114 -1098 1015 0
-1107 -1114 -1098 1008 0
-1106 -1112 -1098 1025 0
-1103 -1114 -1098 1032 0
-1104 -1110 -1098 1033 0
-1103 -1110 -1098 1034 0
-1103 -1099 1031 0
-1106 -1099 1002 0
-1105 -1099 996 0
-1104 -1099 1021 0
-1107 -1099 1005 0
-1116 -1100 1010 0
-1121 -1100 1002 0
-1122 -1100 1017 0
-1117 -1100 996 0
-1120 -1100 1021 0
-1118 -1100 1005 0
-1119 -1100 1014 0
-1115 -1100 1031 0
-1103 -1101 905 0
-1107 -1101 882 0
-1104 -1101 883 0
-1105 -1101 898 0
-1106 -1101 913 0
-1119 -1102 907 0
-1118 -1102 882 0
-1120 -1102 883 0
-1116 -1102 902 0
-1115 -1102 905 0
-1117 -1102 898 0
-1121 -1102 913 0
-1122 -1102 888 0
-1093 -1105 -1111 0
-1093 -1105 -1113 0
-1093 -1105 -1108 0
-1093 -1105 -1110 0
-1093 -1107 -1111 0
-1093 -1103 -1111 0
-1093 -1103 -1108 0
-1093 -1104 -1111 0
-1093 -1104 -1113 0
-1093 -1104 -1108 0
-1093 -1105 -1117 0
-1093 -1105 -1121 0
-1093 -1105 -1115 0
-1093 -1105 -1120 0
-1093 -1105 -1118 0
-1093 -1107 -1121 0
-1093 -1107 -1118 0
-1093 -1103 -1121 0
-1093 -1103 -1115 0
-1093 -1103 -1118 0
-1093 -1104 -1121 0
-1093 -1104 -1115 0
-1093 -1104 -1120 0
-1093 -1104 -1118 0
-1093 -1106 -1121 0
-1095 -1105 -1111 0
-1095 -1105 -1113 0
-1095 -1105 -1108 0
-1095 -1105 -1110 0
-1095 -1107 -1111 0
-1095 -1103 -1111 0
-1095 -1103 -1108 0
-1095 -1104 -1111 0
-1095 -1104 -1113 0
-1095 -1104 -1108 0
-1095 -1105 -1117 0
-1095 -1105 -1121 0
-1095 -1105 -1115 0
-1095 -1105 -1120 0
-1095 -1105 -1118 0
-1095 -1107 -1121 0
-1095 -1107 -1118 0
-1095 -1103 -1121 0
-1095 -1103 -1115 0
-1095 -1103 -1118 0
-1095 -1104 -1121 0
-1095 -1104 -1115 0
-1095 -1104 -1120 0
-1095 -1104 -1118 0
-1095 -1106 -1121 0
-990 1095 0
-991 1096 0
-992 1093 0
-989 1094 0
-1093 992 0
-1094 989 0
-1095 990 0
-1096 991 0
-1123 1125 0
-1124 -1125 0
-882 1126 -1093 1107 0
-882 1126 -1095 1118 0
-882 1126 1093 1095 0
882 -1126 -1093 1111 0
882 -1126 -1095 1107 0
882 -1126 1093 1095 0
-883 1127 -1093 1104 0
-883 1127 -1095 1120 0
-883 1127 1093 1095 0
883 -1127 -1093 1113 0
883 -1127 -1095 1104 0
883 -1127 1093 1095 0
-994 1128 -1093 -1106 1109 0
-994 1128 -1093 1106 0
-994 1128 -1095 -1106 1109 0
-994 1128 -1095 1106 0
-994 1128 1093 1095 0
994 -1128 -1093 -1106 1116 0
994 -1128 -1093 1106 0
994 -1128 -1095 -1106 1116 0
994 -1128 -1095 1106 0
994 -1128 1093 1095 0
-995 1129 -1093 -1104 1112 0
-995 1129 -1093 1104 0
-995 1129 -1095 -1104 1112 0
-995 1129 -1095 1104 0
-995 1129 1093 1095 0
995 -1129 -1093 -1104 1119 0
995 -1129 -1093 1104 0
995 -1129 -1095 -1104 1119 0
995 -1129 -1095 1104 0
995 -1129 1093 1095 0
-996 1130 -1093 1117 0
-996 1130 -1095 1105 0
-996 1130 1093 1095 0
996 -1130 -1093 1105 0
996 -1130 -1095 1110 0
996 -1130 1093 1095 0
-997 1131 -1093 -1106 1114 0
-997 1131 -1093 1106 0
-997 1131 -1095 -1106 1114 0
-997 1131 -1095 1106 0
-997 1131 1093 1095 0
997 -1131 -1093 -1106 1122 0
997 -1131 -1093 1106 0
997 -1131 -1095 -1106 1122 0
997 -1131 -1095 1106 0
997 -1131 1093 1095 0
-998 1132 -1093 -1103 1109 0
-998 1132 -1093 1103 0
-998 1132 -1095 -1103 1109 0
-998 1132 -1095 1103 0
-998 1132 1093 1095 0
998 -1132 -1093 -1103 1116 0
998 -1132 -1093 1103 0
998 -1132 -1095 -1103 1116 0
998 -1132 -1095 1103 0
998 -1132 1093 1095 0
-888 1133 -1095 1122 0
-888 1133 1095 0
888 -1133 -1093 1114 0
888 -1133 1093 0
-999 1134 -1093 -1105 1114 0
-999 1134 -1093 1105 0
-999 1134 -1095 -1105 1114 0
-999 1134 -1095 1105 0
-999 1134 1093 1095 0
999 -1134 -1093 -1105 1122 0
999 -1134 -1093 1105 0
999 -1134 -1095 -1105 1122 0
999 -1134 -1095 1105 0
999 -1134 1093 1095 0
-1001 1135 -1093 -1106 1111 0
-1001 1135 -1093 1106 0
-1001 1135 -1095 -1106 1111 0
-1001 1135 -1095 1106 0
-1001 1135 1093 1095 0
1001 -1135 -1093 -1106 1118 0
1001 -1135 -1093 1106 0
1001 -1135 -1095 -1106 1118 0
1001 -1135 -1095 1106 0
1001 -1135 1093 1095 0
-1002 1136 -1093 1121 0
-1002 1136 -1095 1106 0
-1002 1136 1093 1095 0
1002 -1136 -1093 1106 0
1002 -1136 1093 0
-1003 1137 -1093 -1107 1113 0
-1003 1137 -1093 1107 0
-1003 1137 -1095 -1107 1113 0
-1003 1137 -1095 1107 0
-1003 1137 1093 1095 0
1003 -1137 -1093 -1107 1120 0
1003 -1137 -1093 1107 0
1003 -1137 -1095 -1107 1120 0
1003 -1137 -1095 1107 0
1003 -1137 1093 1095 0
-1005 1138 -1093 1118 0
-1005 1138 -1095 1107 0
-1005 1138 1093 1095 0
1005 -1138 -1093 1107 0
1005 -1138 -1095 1111 0
1005 -1138 1093 1095 0
-1006 1139 -1093 -1107 1108 0
-1006 1139 -1093 1107 0
-1006 1139 -1095 -1107 1108 0
-1006 1139 -1095 1107 0
-1006 1139 1093 1095 0
1006 -1139 -1093 -1107 1115 0
1006 -1139 -1093 1107 0
1006 -1139 -1095 -1107 1115 0
1006 -1139 -1095 1107 0
1006 -1139 1093 1095 0
-1008 1140 -1093 -1107 1114 0
-1008 1140 -1093 1107 0
-1008 1140 -1095 -1107 1114 0
-1008 1140 -1095 1107 0
-1008 1140 1093 1095 0
1008 -1140 -1093 -1107 1122 0
1008 -1140 -1093 1107 0
1008 -1140 -1095 -1107 1122 0
1008 -1140 -1095 1107 0
1008 -1140 1093 1095 0
-1009 1141 -1093 -1106 1108 0
-1009 1141 -1093 1106 0
-1009 1141 -1095 -1106 1108 0
-1009 1141 -1095 1106 0
-1009 1141 1093 1095 0
1009 -1141 -1093 -1106 1115 0
1009 -1141 -1093 1106 0
1009 -1141 -1095 -1106 1115 0
1009 -1141 -1095 1106 0
1009 -1141 1093 1095 0
-1010 1142 -1093 1116 0
-1010 1142 1093 0
1010 -1142 -1095 1109 0
1010 -1142 1095 0
-898 1143 -1093 1105 0
-898 1143 -1095 1117 0
-898 1143 1093 1095 0
898 -1143 -1093 1110 0
898 -1143 -1095 1105 0
898 -1143 1093 1095 0
-1012 1144 -1093 -1105 1109 0
-1012 1144 -1093 1105 0
-1012 1144 -1095 -1105 1109 0
-1012 1144 -1095 1105 0
-1012 1144 1093 1095 0
1012 -1144 -1093 -1105 1116 0
1012 -1144 -1093 1105 0
1012 -1144 -1095 -1105 1116 0
1012 -1144 -1095 1105 0
1012 -1144 1093 1095 0
-1013 1145 -1093 -1103 1112 0
-1013 1145 -1093 1103 0
-1013 1145 -1095 -1103 1112 0
-1013 1145 -1095 1103 0
-1013 1145 1093 1095 0
1013 -1145 -1093 -1103 1119 0
1013 -1145 -1093 1103 0
1013 -1145 -1095 -1103 1119 0
1013 -1145 -1095 1103 0
1013 -1145 1093 1095 0
-902 1146 -1095 1116 0
-902 1146 1095 0
902 -1146 -1093 1109 0
902 -1146 1093 0
-1014 1147 -1093 1119 0
-1014 1147 1093 0
1014 -1147 -1095 1112 0
1014 -1147 1095 0
-1015 1148 -1093 -1104 1114 0
-1015 1148 -1093 1104 0
-1015 1148 -1095 -1104 1114 0
-1015 1148 -1095 1104 0
-1015 1148 1093 1095 0
1015 -1148 -1093 -1104 1122 0
1015 -1148 -1093 1104 0
1015 -1148 -1095 -1104 1122 0
1015 -1148 -1095 1104 0
1015 -1148 1093 1095 0
-1016 1149 -1093 -1106 1113 0
-1016 1149 -1093 1106 0
-1016 1149 -1095 -1106 1113 0
-1016 1149 -1095 1106 0
-1016 1149 1093 1095 0
1016 -1149 -1093 -1106 1120 0
1016 -1149 -1093 1106 0
1016 -1149 -1095 -1106 1120 0
1016 -1149 -1095 1106 0
1016 -1149 1093 1095 0
-1017 1150 -1093 1122 0
-1017 1150 1093 0
1017 -1150 -1095 1114 0
1017 -1150 1095 0
-905 1151 -1093 1103 0
-905 1151 -1095 1115 0
-905 1151 1093 1095 0
905 -1151 -1093 1108 0
905 -1151 -1095 1103 0
905 -1151 1093 1095 0
-907 1152 -1095 1119 0
-907 1152 1095 0
907 -1152 -1093 1112 0
907 -1152 1093 0
-1020 1153 -1093 -1105 1112 0
-1020 1153 -1093 1105 0
-1020 1153 -1095 -1105 1112 0
-1020 1153 -1095 1105 0
-1020 1153 1093 1095 0
1020 -1153 -1093 -1105 1119 0
1020 -1153 -1093 1105 0
1020 -1153 -1095 -1105 1119 0
1020 -1153 -1095 1105 0
1020 -1153 1093 1095 0
-1021 1154 -1093 1120 0
-1021 1154 -1095 1104 0
-1021 1154 1093 1095 0
1021 -1154 -1093 1104 0
1021 -1154 -1095 1113 0
1021 -1154 1093 1095 0
-1022 1155 -1093 -1106 1110 0
-1022 1155 -1093 1106 0
-1022 1155 -1095 -1106 1110 0
-1022 1155 -1095 1106 0
-1022 1155 1093 1095 0
1022 -1155 -1093 -1106 1117 0
1022 -1155 -1093 1106 0
1022 -1155 -1095 -1106 1117 0
1022 -1155 -1095 1106 0
1022 -1155 1093 1095 0
-1023 1156 -1093 -1104 1109 0
-1023 1156 -1093 1104 0
-1023 1156 -1095 -1104 1109 0
-1023 1156 -1095 1104 0
-1023 1156 1093 1095 0
1023 -1156 -1093 -1104 1116 0
1023 -1156 -1093 1104 0
1023 -1156 -1095 -1104 1116 0
1023 -1156 -1095 1104 0
1023 -1156 1093 1095 0
-1024 1157 -1093 -1107 1110 0
-1024 1157 -1093 1107 0
-1024 1157 -1095 -1107 1110 0
-1024 1157 -1095 1107 0
-1024 1157 1093 1095 0
1024 -1157 -1093 -1107 1117 0
1024 -1157 -1093 1107 0
1024 -1157 -1095 -1107 1117 0
1024 -1157 -1095 1107 0
1024 -1157 1093 1095 0
-913 1158 -1093 1106 0
-913 1158 -1095 1121 0
-913 1158 1093 1095 0
913 -1158 -1095 1106 0
913 -1158 1095 0
-1025 1159 -1093 -1106 1112 0
-1025 1159 -1093 1106 0
-1025 1159 -1095 -1106 1112 0
-1025 1159 -1095 1106 0
-1025 1159 1093 1095 0
1025 -1159 -1093 -1106 1119 0
1025 -1159 -1093 1106 0
1025 -1159 -1095 -1106 1119 0
1025 -1159 -1095 1106 0
1025 -1159 1093 1095 0
-1027 1160 -1093 -1107 1112 0
-1027 1160 -1093 1107 0
-1027 1160 -1095 -1107 1112 0
-1027 1160 -1095 1107 0
-1027 1160 1093 1095 0
1027 -1160 -1093 -1107 1119 0
1027 -1160 -1093 1107 0
1027 -1160 -1095 -1107 1119 0
1027 -1160 -1095 1107 0
1027 -1160 1093 1095 0
-1028 1161 -1093 -1107 1109 0
-1028 1161 -1093 1107 0
-1028 1161 -1095 -1107 1109 0
-1028 1161 -1095 1107 0
-1028 1161 1093 1095 0
1028 -1161 -1093 -1107 1116 0
1028 -1161 -1093 1107 0
1028 -1161 -1095 -1107 1116 0
1028 -1161 -1095 1107 0
1028 -1161 1093 1095 0
-1029 1162 -1093 -1103 1113 0
-1029 1162 -1093 1103 0
-1029 1162 -1095 -1103 1113 0
-1029 1162 -1095 1103 0
-1029 1162 1093 1095 0
1029 -1162 -1093 -1103 1120 0
1029 -1162 -1093 1103 0
1029 -1162 -1095 -1103 1120 0
1029 -1162 -1095 1103 0
1029 -1162 1093 1095 0
-1031 1163 -1093 1115 0
-1031 1163 -1095 1103 0
-1031 1163 1093 1095 0
1031 -1163 -1093 1103 0
1031 -1163 -1095 1108 0
1031 -1163 1093 1095 0
-1032 1164 -1093 -1103 1114 0
-1032 1164 -1093 1103 0
-1032 1164 -1095 -1103 1114 0
-1032 1164 -1095 1103 0
-1032 1164 1093 1095 0
1032 -1164 -1093 -1103 1122 0
1032 -1164 -1093 1103 0
1032 -1164 -1095 -1103 1122 0
1032 -1164 -1095 1103 0
1032 -1164 1093 1095 0
-1033 1165 -1093 -1104 1110 0
-1033 1165 -1093 1104 0
-1033 1165 -1095 -1104 1110 0
-1033 1165 -1095 1104 0
-1033 1165 1093 1095 0
1033 -1165 -1093 -1104 1117 0
1033 -1165 -1093 1104 0
1033 -1165 -1095 -1104 1117 0
1033 -1165 -1095 1104 0
1033 -1165 1093 1095 0
-1034 1166 -1093 -1103 1110 0
-1034 1166 -1093 1103 0
-1034 1166 -1095 -1103 1110 0
-1034 1166 -1095 1103 0
-1034 1166 1093 1095 0
1034 -1166 -1093 -1103 1117 0
1034 -1166 -1093 1103 0
1034 -1166 -1095 -1103 1117 0
1034 -1166 -1095 1103 0
1034 -1166 1093 1095 0
-1123 -1124 0
-1106 -1108 1167 -1141 0
-1106 -1113 1167 -1149 0
-1106 -1109 1167 -1128 0
-1104 -1112 1167 -1129 0
-1106 -1114 1167 -1131 0
-1103 -1109 1167 -1132 0
-1105 -1109 1167 -1144 0
-1107 -1112 1167 -1160 0
-1105 -1114 1167 -1134 0
-1106 -1111 1167 -1135 0
-1105 -1112 1167 -1153 0
-1103 -1112 1167 -1145 0
-1107 -1113 1167 -1137 0
-1107 -1109 1167 -1161 0
-1103 -1113 1167 -1162 0
-1106 -1110 1167 -1155 0
-1104 -1109 1167 -1156 0
-1107 -1108 1167 -1139 0
-1107 -1110 1167 -1157 0
-1104 -1114 1167 -1148 0
-1107 -1114 1167 -1140 0
-1106 -1112 1167 -1159 0
-1103 -1114 1167 -1164 0
-1104 -1110 1167 -1165 0
-1103 -1110 1167 -1166 0
-1109 -1168 1142 0
-1114 -1168 1150 0
-1110 -1168 1130 0
-1113 -1168 1154 0
-1111 -1168 1138 0
-1112 -1168 1147 0
-1108 -1168 1163 0
-1103 1169 -1151 0
-1107 1169 -1126 0
-1104 1169 -1127 0
-1105 1169 -1143 0
-1106 1169 -1158 0
-1103 -1169 1151 0
-1107 -1169 1126 0
-1104 -1169 1127 0
-1105 -1169 1143 0
-1106 -1169 1158 0
-1103 1170 -1163 0
-1106 1170 -1136 0
-1105 1170 -1130 0
-1104 1170 -1154 0
-1107 1170 -1138 0
-1103 -1170 1163 0
-1106 -1170 1136 0
-1105 -1170 1130 0
-1104 -1170 1154 0
-1107 -1170 1138 0
-1106 -1115 -1171 1141 0
-1106 -1120 -1171 1149 0
-1106 -1116 -1171 1128 0
-1104 -1119 -1171 1129 0
-1106 -1122 -1171 1131 0
-1103 -1116 -1171 1132 0
-1105 -1116 -1171 1144 0
-1107 -1119 -1171 1160 0
-1105 -1122 -1171 1134 0
-1106 -1118 -1171 1135 0
-1105 -1119 -1171 1153 0
-1103 -1119 -1171 1145 0
-1107 -1120 -1171 1137 0
-1107 -1116 -1171 1161 0
-1103 -1120 -1171 1162 0
-1106 -1117 -1171 1155 0
-1104 -1116 -1171 1156 0
-1107 -1115 -1171 1139 0
-1107 -1117 -1171 1157 0
-1104 -1122 -1171 1148 0
-1107 -1122 -1171 1140 0
-1106 -1119 -1171 1159 0
-1103 -1122 -1171 1164 0
-1104 -1117 -1171 1165 0
-1103 -1117 -1171 1166 0
-1112 -1172 1152 0
-1111 -1172 1126 0
-1113 -1172 1127 0
-1109 -1172 1146 0
-1108 -1172 1151 0
-1110 -1172 1143 0
-1114 -1172 1133 0
-1116 1173 -1142 0
-1121 1173 -1136 0
-1122 1173 -1150 0
-1117 1173 -1130 0
-1120 1173 -1154 0
-1118 1173 -1138 0
-1119 1173 -1147 0
-1115 1173 -1163 0
-1119 1174 -1152 0
-1118 1174 -1126 0
-1120 1174 -1127 0
-1116 1174 -1146 0
-1115 1174 -1151 0
-1117 1174 -1143 0
-1121 1174 -1158 0
-1122 1174 -1133 0
-1175 1115 -1103 0
-1175 -1115 1103 0
-1175 1120 -1104 0
-1175 -1120 1104 0
-1175 1117 -1105 0
-1175 -1117 1105 0
-1175 1121 -1106 0
-1175 -1121 1106 0
-1175 1118 -1107 0
-1175 -1118 1107 0
-1115 -1103 1175 0
-1120 -1104 1175 0
-1117 -1105 1175 0
-1121 -1106 1175 0
-1118 -1107 1175 0
-1119 -1175 0
-1116 -1175 0
-1122 -1175 0
-1176 1115 -1108 0
-1176 -1115 1108 0
-1176 1116 -1109 0
-1176 -1116 1109 0
-1176 1117 -1110 0
-1176 -1117 1110 0
-1176 1118 -1111 0
-1176 -1118 1111 0
-1176 1119 -1112 0
-1176 -1119 1112 0
-1176 1120 -1113 0
-1176 -1120 1113 0
-1176 1122 -1114 0
-1176 -1122 1114 0
-1115 -1108 1176 0
-1116 -1109 1176 0
-1117 -1110 1176 0
-1118 -1111 1176 0
-1119 -1112 1176 0
-1120 -1113 1176 0
-1122 -1114 1176 0
-1121 -1176 0
-1093 -1173 1175 0
-1093 1170 0
-1093 1172 0
-1093 1171 0
-1177 1103 -1108 0
-1177 -1103 1108 0
-1177 1104 -1113 0
-1177 -1104 1113 0
-1177 1105 -1110 0
-1177 -1105 1110 0
-1177 1107 -1111 0
-1177 -1107 1111 0
-1103 -1108 1177 0
-1104 -1113 1177 0
-1105 -1110 1177 0
-1107 -1111 1177 0
-1106 -1177 0
-1112 -1177 0
-1109 -1177 0
-1114 -1177 0
-1093 -1169 1177 0
-1178 1108 -1115 0
-1178 -1108 1115 0
-1178 1109 -1116 0
-1178 -1109 1116 0
-1178 1110 -1117 0
-1178 -1110 1117 0
-1178 1111 -1118 0
-1178 -1111 1118 0
-1178 1112 -1119 0
-1178 -1112 1119 0
-1178 1113 -1120 0
-1178 -1113 1120 0
-1178 1114 -1122 0
-1178 -1114 1122 0
-1108 -1115 1178 0
-1109 -1116 1178 0
-1110 -1117 1178 0
-1111 -1118 1178 0
-1112 -1119 1178 0
-1113 -1120 1178 0
-1114 -1122 1178 0
-1121 -1178 0
-1093 -1167 1178 0
-1095 -1170 1177 0
-1095 -1174 1175 0
-1095 1171 0
-1095 1169 0
-1095 1168 0
-1095 -1167 1178 0
-990 1124 0
-991 1123 0
-992 1124 0
-989 1123 0
-1124 990 992 0
-1123 991 989 0
-1126 151 -1125 0
1126 -151 -1125 0
-1127 152 -1125 0
1127 -152 -1125 0
-1128 154 -1125 0
1128 -154 -1125 0
-1129 155 -1125 0
1129 -155 -1125 0
-1130 385 -1125 0
1130 -385 -1125 0
-1131 156 -1125 0
1131 -156 -1125 0
-1132 158 -1125 0
1132 -158 -1125 0
-1133 159 -1125 0
1133 -159 -1125 0
-1134 160 -1125 0
1134 -160 -1125 0
-1000 602 -1125 0
1000 -602 -1125 0
-1135 10 -1125 0
1135 -10 -1125 0
-1136 162 -1125 0
1136 -162 -1125 0
-1137 163 -1125 0
1137 -163 -1125 0
-1004 270 -1125 0
1004 -270 -1125 0
-1138 386 -1125 0
1138 -386 -1125 0
-1139 11 -1125 0
1139 -11 -1125 0
-1007 271 -1125 0
1007 -271 -1125 0
-1140 167 -1125 0
1140 -167 -1125 0
-1141 170 -1125 0
1141 -170 -1125 0
-1142 171 -1125 0
1142 -171 -1125 0
-1143 172 -1125 0
1143 -172 -1125 0
-1011 273 -1125 0
1011 -273 -1125 0
-1144 12 -1125 0
1144 -12 -1125 0
-1145 174 -1125 0
1145 -174 -1125 0
-1146 274 -1125 0
1146 -274 -1125 0
-1147 387 -1125 0
1147 -387 -1125 0
-1148 176 -1125 0
1148 -176 -1125 0
-1149 153 -1125 0
1149 -153 -1125 0
-1150 388 -1125 0
1150 -388 -1125 0
-1151 157 -1125 0
1151 -157 -1125 0
-1018 267 -1125 0
1018 -267 -1125 0
-1152 268 -1125 0
1152 -268 -1125 0
-1019 269 -1125 0
1019 -269 -1125 0
-1153 161 -1125 0
1153 -161 -1125 0
-1154 389 -1125 0
1154 -389 -1125 0
-1155 164 -1125 0
1155 -164 -1125 0
-1156 165 -1125 0
1156 -165 -1125 0
-1157 166 -1125 0
1157 -166 -1125 0
-1158 168 -1125 0
1158 -168 -1125 0
-1159 169 -1125 0
1159 -169 -1125 0
-1026 272 -1125 0
1026 -272 -1125 0
-1160 173 -1125 0
1160 -173 -1125 0
-1161 175 -1125 0
1161 -175 -1125 0
-1162 13 -1125 0
1162 -13 -1125 0
-1030 603 -1125 0
1030 -603 -1125 0
-1163 390 -1125 0
1163 -390 -1125 0
-1164 177 -1125 0
1164 -177 -1125 0
-1165 14 -1125 0
1165 -14 -1125 0
-1166 178 -1125 0
1166 -178 -1125 0
-1062 1179 0
-1179 1062 0
a 1125 0
